5
29
86
40	23
1	1	17	2	
2	2	6	12	6	5	
3	3	6	6	6	5	5	2	
4	5	12	5	11	4	5	4	10	3	5	2	
5	2	10	4	10	2	
6	3	5	5	16	4	4	4	
7	1	14	4	
8	1	11	4	
9	5	8	11	9	5	20	4	10	4	15	3	
10	3	12	6	19	4	7	4	
11	3	15	4	14	3	9	2	
12	5	7	8	8	5	9	4	6	4	18	3	
13	3	7	10	5	10	8	7	
14	5	9	5	9	4	14	3	5	3	18	2	
15	4	9	5	13	3	9	3	7	3	
16	2	11	5	12	4	
17	4	12	4	5	4	15	3	23	2	
18	3	7	4	5	4	13	3	
19	2	5	7	14	4	
20	2	6	12	6	3	
21	1	7	4	
22	2	12	4	12	3	
23	3	5	11	5	5	5	4	
24	2	7	11	7	3	
25	1	19	3	
26	5	11	5	10	4	8	4	7	3	7	2	
27	5	7	11	6	10	6	5	15	4	20	3	
28	3	5	8	7	6	11	2	
29	5	16	4	6	4	5	4	4	4	7	2	
